
ASes= { 1, 2, 3, 4, 5, 6, 7, 8, 9, 10, 11 } ;


Objects= { 1, 2, 3, 4, 5, 6, 7, 8, 9, 10, 11, 12, 13, 14, 15, 16, 17, 18, 19, 20, 21, 22, 23, 24, 25, 26, 27, 28, 29, 30, 31, 32, 33, 34, 35, 36, 37, 38, 39, 40, 41, 42, 43, 44, 45, 46, 47, 48, 49, 50, 51, 52, 53, 54, 55, 56, 57, 58, 59, 60, 61, 62, 63, 64, 65, 66, 67, 68, 69, 70, 71, 72, 73, 74, 75, 76, 77, 78, 79, 80, 81, 82, 83, 84, 85, 86, 87, 88, 89, 90, 91, 92, 93, 94, 95, 96, 97, 98, 99, 100 } ;


QualityLevels= { 0, 1, 2, 3, 4, 5 } ;

Arcs = {<2,1,490000>, <1,2,490000>, <11,1,490000>, <1,11,490000>, <11,2,490000>, <2,11,490000>, <11,10,490000>, <10,11,490000>, <3,2,490000>, <2,3,490000>, <4,3,490000>, <3,4,490000>, <5,4,490000>, <4,5,490000>, <6,5,490000>, <5,6,490000>, <7,6,490000>, <6,7,490000>, <8,4,490000>, <4,8,490000>, <8,7,490000>, <7,8,490000>, <9,3,490000>, <3,9,490000>, <9,8,490000>, <8,9,490000>, <10,9,490000>, <9,10,490000>};


RatePerQuality= [ 0  300  700  1500  2500  3500 ] ;


CacheSpacePerQuality= [ 10000  11.25  26.25  56.25  93.75  131.25 ] ;


UtilityPerQuality= [ 0  0.2  0.4  0.6  0.8  1 ] ;


ObjectsPublishedByProducers=[ [ 0  0  0  0  0  0  0  1  0  0  0 ]  [ 0  0  0  0  0  0  0  1  0  0  0 ]  [ 0  0  0  0  0  0  0  1  0  0  0 ]  [ 0  0  0  0  0  0  0  1  0  0  0 ]  [ 0  0  0  0  0  0  0  1  0  0  0 ]  [ 0  0  0  0  0  0  0  1  0  0  0 ]  [ 0  0  0  0  0  0  0  1  0  0  0 ]  [ 0  0  0  0  0  0  0  1  0  0  0 ]  [ 0  0  0  0  0  0  0  1  0  0  0 ]  [ 0  0  0  0  0  0  0  1  0  0  0 ]  [ 0  0  0  0  0  0  0  1  0  0  0 ]  [ 0  0  0  0  0  0  0  1  0  0  0 ]  [ 0  0  0  0  0  0  0  1  0  0  0 ]  [ 0  0  0  0  0  0  0  1  0  0  0 ]  [ 0  0  0  0  0  0  0  1  0  0  0 ]  [ 0  0  0  0  0  0  0  1  0  0  0 ]  [ 0  0  0  0  0  0  0  1  0  0  0 ]  [ 0  0  0  0  0  0  0  1  0  0  0 ]  [ 0  0  0  0  0  0  0  1  0  0  0 ]  [ 0  0  0  0  0  0  0  1  0  0  0 ]  [ 0  0  0  0  0  0  0  1  0  0  0 ]  [ 0  0  0  0  0  0  0  1  0  0  0 ]  [ 0  0  0  0  0  0  0  1  0  0  0 ]  [ 0  0  0  0  0  0  0  1  0  0  0 ]  [ 0  0  0  0  0  0  0  1  0  0  0 ]  [ 0  0  0  0  0  0  0  1  0  0  0 ]  [ 0  0  0  0  0  0  0  1  0  0  0 ]  [ 0  0  0  0  0  0  0  1  0  0  0 ]  [ 0  0  0  0  0  0  0  1  0  0  0 ]  [ 0  0  0  0  0  0  0  1  0  0  0 ]  [ 0  0  0  0  0  0  0  1  0  0  0 ]  [ 0  0  0  0  0  0  0  1  0  0  0 ]  [ 0  0  0  0  0  0  0  1  0  0  0 ]  [ 0  0  0  0  0  0  0  1  0  0  0 ]  [ 0  0  0  0  0  0  0  1  0  0  0 ]  [ 0  0  0  0  0  0  0  1  0  0  0 ]  [ 0  0  0  0  0  0  0  1  0  0  0 ]  [ 0  0  0  0  0  0  0  1  0  0  0 ]  [ 0  0  0  0  0  0  0  1  0  0  0 ]  [ 0  0  0  0  0  0  0  1  0  0  0 ]  [ 0  0  0  0  0  0  0  1  0  0  0 ]  [ 0  0  0  0  0  0  0  1  0  0  0 ]  [ 0  0  0  0  0  0  0  1  0  0  0 ]  [ 0  0  0  0  0  0  0  1  0  0  0 ]  [ 0  0  0  0  0  0  0  1  0  0  0 ]  [ 0  0  0  0  0  0  0  1  0  0  0 ]  [ 0  0  0  0  0  0  0  1  0  0  0 ]  [ 0  0  0  0  0  0  0  1  0  0  0 ]  [ 0  0  0  0  0  0  0  1  0  0  0 ]  [ 0  0  0  0  0  0  0  1  0  0  0 ]  [ 0  0  0  0  0  0  0  1  0  0  0 ]  [ 0  0  0  0  0  0  0  1  0  0  0 ]  [ 0  0  0  0  0  0  0  1  0  0  0 ]  [ 0  0  0  0  0  0  0  1  0  0  0 ]  [ 0  0  0  0  0  0  0  1  0  0  0 ]  [ 0  0  0  0  0  0  0  1  0  0  0 ]  [ 0  0  0  0  0  0  0  1  0  0  0 ]  [ 0  0  0  0  0  0  0  1  0  0  0 ]  [ 0  0  0  0  0  0  0  1  0  0  0 ]  [ 0  0  0  0  0  0  0  1  0  0  0 ]  [ 0  0  0  0  0  0  0  1  0  0  0 ]  [ 0  0  0  0  0  0  0  1  0  0  0 ]  [ 0  0  0  0  0  0  0  1  0  0  0 ]  [ 0  0  0  0  0  0  0  1  0  0  0 ]  [ 0  0  0  0  0  0  0  1  0  0  0 ]  [ 0  0  0  0  0  0  0  1  0  0  0 ]  [ 0  0  0  0  0  0  0  1  0  0  0 ]  [ 0  0  0  0  0  0  0  1  0  0  0 ]  [ 0  0  0  0  0  0  0  1  0  0  0 ]  [ 0  0  0  0  0  0  0  1  0  0  0 ]  [ 0  0  0  0  0  0  0  1  0  0  0 ]  [ 0  0  0  0  0  0  0  1  0  0  0 ]  [ 0  0  0  0  0  0  0  1  0  0  0 ]  [ 0  0  0  0  0  0  0  1  0  0  0 ]  [ 0  0  0  0  0  0  0  1  0  0  0 ]  [ 0  0  0  0  0  0  0  1  0  0  0 ]  [ 0  0  0  0  0  0  0  1  0  0  0 ]  [ 0  0  0  0  0  0  0  1  0  0  0 ]  [ 0  0  0  0  0  0  0  1  0  0  0 ]  [ 0  0  0  0  0  0  0  1  0  0  0 ]  [ 0  0  0  0  0  0  0  1  0  0  0 ]  [ 0  0  0  0  0  0  0  1  0  0  0 ]  [ 0  0  0  0  0  0  0  1  0  0  0 ]  [ 0  0  0  0  0  0  0  1  0  0  0 ]  [ 0  0  0  0  0  0  0  1  0  0  0 ]  [ 0  0  0  0  0  0  0  1  0  0  0 ]  [ 0  0  0  0  0  0  0  1  0  0  0 ]  [ 0  0  0  0  0  0  0  1  0  0  0 ]  [ 0  0  0  0  0  0  0  1  0  0  0 ]  [ 0  0  0  0  0  0  0  1  0  0  0 ]  [ 0  0  0  0  0  0  0  1  0  0  0 ]  [ 0  0  0  0  0  0  0  1  0  0  0 ]  [ 0  0  0  0  0  0  0  1  0  0  0 ]  [ 0  0  0  0  0  0  0  1  0  0  0 ]  [ 0  0  0  0  0  0  0  1  0  0  0 ]  [ 0  0  0  0  0  0  0  1  0  0  0 ]  [ 0  0  0  0  0  0  0  1  0  0  0 ]  [ 0  0  0  0  0  0  0  1  0  0  0 ]  [ 0  0  0  0  0  0  0  1  0  0  0 ]  [ 0  0  0  0  0  0  0  1  0  0  0 ] ];

ObjRequests = {  <1,5,190>, <2,5,247>, <3,5,210>, <4,5,21>, <5,5,31>, <6,5,45>, <7,5,31>, <8,5,5>, <9,5,47>, <10,5,3>, <11,5,9>, <12,5,35>, <13,5,9>, <14,5,12>, <15,5,42>, <16,5,4>, <17,5,5>, <18,5,21>, <19,5,31>, <20,5,4>, <21,5,17>, <22,5,24>, <23,5,21>, <24,5,4>, <25,5,3>, <26,5,1>, <27,5,10>, <28,5,3>, <29,5,3>, <30,5,2>, <31,5,9>, <32,5,6>, <33,5,11>, <34,5,2>, <35,5,7>, <36,5,13>, <37,5,11>, <38,5,8>, <39,5,3>, <40,5,24>, <41,5,5>, <42,5,7>, <43,5,2>, <44,5,4>, <45,5,3>, <46,5,6>, <47,5,8>, <48,5,10>, <49,5,6>, <50,5,1>, <51,5,12>, <52,5,11>, <53,5,7>, <54,5,6>, <55,5,2>, <56,5,7>, <57,5,11>, <58,5,5>, <59,5,25>, <60,5,2>, <61,5,2>, <62,5,1>, <63,5,8>, <64,5,1>, <65,5,5>, <66,5,5>, <67,5,1>, <68,5,5>, <69,5,9>, <70,5,7>, <71,5,2>, <72,5,4>, <73,5,6>, <74,5,2>, <75,5,2>, <76,5,3>, <77,5,9>, <78,5,3>, <79,5,1>, <80,5,5>, <81,5,13>, <82,5,4>, <83,5,4>, <84,5,1>, <85,5,1>, <86,5,2>, <88,5,3>, <89,5,1>, <90,5,9>, <91,5,1>, <92,5,2>, <93,5,2>, <94,5,6>, <96,5,2>, <97,5,6>, <98,5,1>, <100,5,1>, <1,6,767>, <2,6,130>, <3,6,41>, <4,6,99>, <5,6,58>, <6,6,11>, <7,6,93>, <9,6,51>, <10,6,84>, <11,6,24>, <12,6,13>, <13,6,20>, <14,6,14>, <15,6,2>, <16,6,63>, <17,6,40>, <18,6,7>, <19,6,4>, <20,6,6>, <21,6,1>, <22,6,15>, <23,6,7>, <24,6,6>, <25,6,2>, <26,6,23>, <27,6,6>, <28,6,2>, <29,6,12>, <30,6,12>, <31,6,10>, <32,6,6>, <33,6,1>, <34,6,11>, <35,6,2>, <36,6,6>, <37,6,13>, <38,6,16>, <39,6,24>, <40,6,3>, <41,6,26>, <42,6,1>, <43,6,8>, <44,6,1>, <45,6,2>, <46,6,5>, <47,6,20>, <48,6,1>, <49,6,16>, <50,6,5>, <51,6,6>, <52,6,17>, <54,6,6>, <55,6,4>, <56,6,2>, <57,6,5>, <58,6,6>, <59,6,2>, <60,6,4>, <61,6,8>, <62,6,2>, <63,6,1>, <64,6,8>, <65,6,6>, <66,6,5>, <67,6,13>, <69,6,3>, <70,6,1>, <71,6,2>, <72,6,11>, <73,6,7>, <74,6,4>, <75,6,14>, <76,6,5>, <77,6,9>, <78,6,1>, <79,6,5>, <80,6,1>, <81,6,1>, <82,6,8>, <83,6,9>, <84,6,4>, <85,6,19>, <86,6,7>, <87,6,7>, <88,6,9>, <89,6,10>, <90,6,1>, <91,6,5>, <92,6,6>, <94,6,3>, <95,6,3>, <96,6,5>, <97,6,1>, <98,6,6>, <99,6,4>, <1,7,157>, <2,7,123>, <3,7,106>, <4,7,212>, <5,7,49>, <6,7,46>, <7,7,59>, <8,7,6>, <9,7,15>, <10,7,43>, <11,7,89>, <12,7,52>, <13,7,7>, <14,7,29>, <15,7,28>, <16,7,31>, <17,7,23>, <18,7,34>, <19,7,15>, <20,7,24>, <22,7,5>, <23,7,21>, <24,7,30>, <25,7,11>, <26,7,7>, <27,7,16>, <28,7,19>, <29,7,35>, <30,7,1>, <31,7,16>, <32,7,19>, <33,7,9>, <34,7,32>, <35,7,4>, <36,7,11>, <37,7,10>, <38,7,4>, <39,7,11>, <40,7,2>, <41,7,3>, <42,7,7>, <43,7,3>, <44,7,1>, <45,7,1>, <46,7,7>, <47,7,1>, <48,7,7>, <49,7,1>, <50,7,7>, <51,7,9>, <52,7,5>, <53,7,10>, <54,7,3>, <55,7,1>, <56,7,19>, <58,7,12>, <59,7,2>, <60,7,2>, <61,7,2>, <62,7,3>, <64,7,7>, <66,7,6>, <67,7,4>, <68,7,8>, <69,7,3>, <70,7,4>, <71,7,4>, <72,7,10>, <73,7,6>, <74,7,1>, <75,7,1>, <76,7,2>, <77,7,2>, <78,7,2>, <79,7,5>, <80,7,4>, <81,7,6>, <82,7,1>, <83,7,1>, <84,7,3>, <86,7,1>, <87,7,3>, <88,7,6>, <89,7,2>, <90,7,7>, <91,7,5>, <92,7,1>, <95,7,7>, <96,7,1>, <97,7,4>, <98,7,1>, <99,7,12>, <100,7,2>, <1,1,293>, <2,1,58>, <3,1,63>, <4,1,2>, <5,1,134>, <6,1,95>, <7,1,35>, <8,1,126>, <9,1,7>, <10,1,14>, <11,1,7>, <12,1,7>, <13,1,66>, <14,1,40>, <15,1,8>, <16,1,11>, <17,1,8>, <18,1,9>, <19,1,6>, <20,1,39>, <21,1,16>, <22,1,6>, <23,1,1>, <24,1,12>, <25,1,19>, <26,1,23>, <27,1,9>, <28,1,7>, <29,1,2>, <30,1,21>, <31,1,14>, <32,1,10>, <33,1,24>, <34,1,2>, <35,1,15>, <36,1,3>, <37,1,2>, <38,1,1>, <39,1,4>, <40,1,10>, <41,1,3>, <42,1,5>, <43,1,9>, <44,1,16>, <45,1,2>, <46,1,21>, <47,1,11>, <48,1,3>, <49,1,11>, <50,1,12>, <51,1,1>, <52,1,1>, <53,1,4>, <54,1,2>, <55,1,10>, <56,1,7>, <57,1,3>, <58,1,2>, <59,1,3>, <60,1,14>, <62,1,8>, <63,1,2>, <64,1,1>, <65,1,14>, <66,1,4>, <68,1,3>, <69,1,6>, <70,1,2>, <71,1,18>, <72,1,4>, <73,1,5>, <74,1,1>, <75,1,4>, <76,1,1>, <77,1,4>, <78,1,5>, <79,1,1>, <80,1,3>, <81,1,2>, <82,1,4>, <83,1,6>, <84,1,5>, <85,1,1>, <86,1,1>, <87,1,12>, <90,1,3>, <92,1,2>, <93,1,11>, <94,1,2>, <95,1,3>, <96,1,2>, <97,1,5>, <98,1,1>, <100,1,17>, <1,10,139>, <2,10,217>, <3,10,108>, <4,10,79>, <5,10,50>, <6,10,71>, <7,10,3>, <8,10,55>, <9,10,46>, <10,10,28>, <11,10,8>, <12,10,12>, <13,10,11>, <14,10,18>, <15,10,32>, <16,10,2>, <17,10,16>, <18,10,13>, <19,10,28>, <20,10,12>, <21,10,29>, <22,10,7>, <23,10,8>, <24,10,9>, <25,10,16>, <26,10,14>, <27,10,9>, <28,10,16>, <29,10,8>, <30,10,11>, <31,10,4>, <32,10,9>, <33,10,4>, <34,10,1>, <35,10,12>, <36,10,9>, <37,10,14>, <38,10,8>, <39,10,4>, <40,10,12>, <41,10,14>, <42,10,22>, <43,10,4>, <44,10,5>, <45,10,24>, <47,10,2>, <48,10,12>, <49,10,9>, <50,10,8>, <51,10,7>, <52,10,2>, <54,10,9>, <55,10,22>, <56,10,3>, <57,10,3>, <58,10,1>, <60,10,1>, <61,10,10>, <62,10,4>, <63,10,11>, <64,10,3>, <65,10,1>, <66,10,6>, <67,10,5>, <68,10,2>, <69,10,6>, <70,10,6>, <71,10,1>, <73,10,3>, <74,10,10>, <75,10,4>, <76,10,14>, <77,10,1>, <78,10,5>, <79,10,5>, <80,10,5>, <82,10,6>, <83,10,1>, <84,10,3>, <85,10,2>, <86,10,4>, <88,10,2>, <90,10,3>, <93,10,1>, <94,10,3>, <95,10,6>, <96,10,4>, <97,10,5>, <98,10,10>, <99,10,6>, <100,10,1> };

MaxCacheStorageAtSingleAS= [ 131.25  131.25  131.25  131.25  131.25  131.25  131.25  131.25  131.25  131.25  131.25 ] ;

MaxCacheStorage = 1443.75 ;
SolutionGap = 0.01 ;
